c description: Random 5-CNF over 15 variables and 45 clauses
c generator: CNFgen (0.9.0)
c copyright: (C) 2012-2020 Massimo Lauria <massimo.lauria@uniroma1.it>
c url: https://massimolauria.net/cnfgen
c
p cnf 15 45
-1 2 -4 -11 -14 0
-1 7 13 -14 15 0
-1 9 10 12 14 0
-2 -5 6 8 14 0
-4 5 7 -8 14 0
-3 -7 -9 13 15 0
-5 -6 -11 -13 -14 0
-4 5 -11 -14 -15 0
-1 6 -9 -12 -15 0
3 -4 -5 6 15 0
1 -3 9 -12 13 0
1 2 -4 -8 -13 0
-3 4 -9 -13 15 0
-3 -5 11 14 -15 0
1 2 -7 8 -14 0
-3 -5 6 9 15 0
1 2 -6 7 -9 0
2 10 11 13 15 0
2 10 -11 14 -15 0
-1 2 -4 13 -14 0
2 -4 -7 9 13 0
-2 -3 11 12 -13 0
1 5 11 -12 -15 0
3 4 -11 -12 14 0
-1 4 -6 8 15 0
3 5 -9 -11 -13 0
-4 -5 10 12 13 0
4 -6 -10 13 15 0
-2 -3 8 10 15 0
1 9 -11 13 15 0
-1 4 5 -10 12 0
3 5 8 12 15 0
4 -7 -8 12 14 0
6 -7 -8 -10 -14 0
2 -6 7 -8 9 0
-3 7 -8 14 15 0
-2 -3 6 -11 -12 0
-1 5 7 -10 11 0
-1 3 -9 -10 11 0
1 -4 -6 7 -10 0
5 -6 -7 13 15 0
-2 3 -4 11 -15 0
-1 4 8 -9 13 0
2 7 -10 13 15 0
-5 7 -10 -11 -15 0